n_res = 4;
rc = [ 99, 61, 73, 72 ];
n_tasks = 90;
d = [ 6, 7, 2, 4, 3, 10, 3, 4, 9, 1, 3, 1, 6, 1, 6, 9, 6, 1, 7, 4, 5, 8, 6, 9, 9, 9, 9, 5, 7, 1, 3, 3, 3, 2, 4, 1, 9, 6, 6, 9, 4, 5, 5, 8, 5, 3, 3, 6, 7, 10, 3, 10, 6, 4, 3, 3, 5, 4, 7, 9, 4, 6, 2, 8, 7, 1, 4, 7, 7, 2, 4, 5, 2, 4, 7, 9, 6, 6, 3, 7, 3, 9, 8, 6, 7, 8, 1, 6, 9, 6 ];
rr = [| 4, 3, 4, 8, 9, 7, 5, 0, 10, 9, 0, 0, 7, 5, 4, 7, 10, 0, 0, 6, 0, 2, 1, 10, 5, 2, 0, 4, 2, 7, 3, 1, 10, 3, 0, 6, 5, 3, 6, 10, 1, 10, 0, 0, 1, 7, 1, 7, 10, 6, 0, 8, 4, 5, 0, 4, 6, 1, 8, 7, 0, 9, 9, 10, 7, 10, 10, 8, 1, 0, 9, 0, 10, 2, 4, 9, 5, 9, 3, 8, 1, 2, 0, 3, 10, 8, 0, 4, 5, 1
      | 2, 4, 8, 0, 10, 6, 6, 3, 0, 0, 3, 8, 5, 5, 0, 2, 0, 10, 2, 10, 0, 0, 0, 2, 0, 0, 4, 0, 1, 3, 10, 5, 0, 6, 3, 0, 0, 0, 6, 6, 0, 0, 0, 1, 4, 4, 0, 5, 8, 9, 10, 1, 9, 9, 6, 3, 9, 4, 7, 5, 9, 3, 0, 0, 10, 0, 8, 3, 0, 2, 0, 1, 0, 8, 7, 8, 8, 10, 9, 10, 2, 0, 6, 9, 9, 6, 5, 0, 5, 6
      | 8, 9, 0, 4, 2, 10, 1, 1, 5, 2, 0, 1, 5, 5, 6, 0, 0, 0, 6, 5, 4, 8, 10, 8, 0, 0, 9, 4, 7, 0, 6, 0, 7, 0, 7, 5, 10, 8, 0, 4, 1, 7, 4, 2, 4, 2, 5, 2, 0, 0, 4, 6, 3, 5, 1, 4, 6, 10, 7, 5, 5, 9, 1, 0, 2, 5, 9, 0, 5, 7, 3, 6, 2, 9, 8, 0, 3, 1, 3, 5, 3, 4, 3, 5, 0, 7, 5, 6, 8, 8
      | 4, 6, 0, 6, 0, 0, 0, 5, 0, 0, 7, 9, 0, 3, 0, 10, 0, 0, 5, 0, 2, 1, 8, 5, 5, 9, 10, 9, 0, 0, 0, 2, 0, 0, 7, 3, 0, 7, 4, 2, 4, 1, 4, 3, 7, 5, 10, 0, 0, 4, 2, 1, 4, 0, 2, 0, 0, 4, 5, 6, 4, 7, 7, 7, 5, 5, 1, 9, 5, 9, 9, 6, 8, 0, 10, 7, 2, 1, 6, 0, 10, 7, 2, 0, 2, 5, 0, 0, 9, 0 |];
suc = [ { 6, 23, 28 },
       { 4, 14, 45 },
       { 21, 69, 73 },
       { 5, 7, 8 },
       { 9, 26, 34 },
       { 12, 31 },
       { 10, 11, 19 },
       { 15, 38 },
       { 59 },
       { 18, 20 },
       { 16, 22 },
       { 13, 25, 33 },
       { 87 },
       { 17 },
       { 65 },
       { 41, 61 },
       { 24 },
       { 40, 60, 63 },
       { 27, 69 },
       { 29 },
       { 35, 39 },
       { 42, 80 },
       { 27, 50, 66 },
       { 32, 62, 83 },
       { 37 },
       { 43 },
       { 30, 36, 81 },
       { 52, 56, 79 },
       { 77 },
       { 53 },
       { 70 },
       { 33, 54, 57 },
       { 58, 68 },
       { 53 },
       { 47, 48 },
       { 46 },
       { 44 },
       { 51, 73 },
       { 64 },
       { 47, 85 },
       { 49 },
       { 61 },
       { 61 },
       { 59 },
       { 90 },
       { 55 },
       { 71 },
       { 55 },
       { 67, 74 },
       { 62 },
       { 81 },
       { 86 },
       { 71 },
       { 78 },
       { 75, 82 },
       { 75 },
       { 70 },
       { 72 },
       { 90 },
       { 66 },
       { 88 },
       { 64, 85 },
       { 76, 78, 84 },
       { 70 },
       { 82 },
       { 77 },
       { 75, 76 },
       { 71, 82 },
       { 79 },
       { 80 },
       { 80 },
       { 86 },
       { 90 },
       { 81 },
       { 86 },
       { 77 },
       { 83 },
       { 89 },
       { 84 },
       { 88 },
       { 89 },
       { 84 },
       { 85 },
       { 87 },
       { 87 },
       { 88 },
       { 89 },
       {  },
       {  },
       {  } ];
